c 9th DIMACS Implementation Challenge: Shortest Paths
c http://www.dis.uniroma1.it/~challenge9
c TIGER/Line graph USA-road-d.NY
c
p sp 6 6
c graph contains 264346 nodes and 733846 arcs
c
a 1 2 803
a 2 3 233
a 3 4 158
a 4 5 134
a 5 6 774
a 6 2 871